65 65
25 58
1 56
12 37
6 59
13 31
31 2
30 43
12 26
17 7
3 62
16 5
25 39
10 21
28 3
20 11
16 45
9 25
21 33
7 30
14 9
18 46
29 42
13 49
11 23
27 1
3 29
22 24
14 32
7 28
28 57
4 60
8 10
29 6
32 22
24 53
18 8
11 35
1 64
19 16
5 20
30 27
24 65
27 63
19 13
32 14
5 38
10 55
6 44
8 48
17 19
31 52
2 54
20 41
23 17
21 50
22 40
23 47
9 18
26 15
15 12
15 36
26 4
1 61
4 51
2 34
